(declare-fun ExpandObjSwitcher () Real)
(declare-fun CreateAsClass () Bool)
(declare-fun ExpandObjSwitcher_2 () Real)
(declare-fun Constructed_Argument_t () String)
(declare-fun Constructed_Argument_Array_Length () Int)
(declare-fun CreateAsClass_2 () Bool)
(assert (= ExpandObjSwitcher 1.0))
(assert (not CreateAsClass))
(assert (= ExpandObjSwitcher_2 0.0))
(assert (= Constructed_Argument_t "array_string"))
(assert (>= Constructed_Argument_Array_Length 0))
(assert CreateAsClass_2)
(check-sat)
